c
c This is glucose 4.1 --  based on MiniSAT (Many thanks to MiniSAT team)
c
c ========================================[ Problem Statistics ]===========================================
c |                                                                                                       |
c |  Number of variables:          2145                                                                   |
c |  Number of clauses:            3840                                                                   |
c |  Parse time:                   0.01 s                                                                 |
c |                                                                                                       |
c | Preprocesing is fully done
c |  Eliminated clauses:           0.01 Mb                                                                |
c |  Simplification time:          0.00 s                                                                 |
c |                                                                                                       |
c ========================================[ MAGIC CONSTANTS ]==============================================
c | Constants are supposed to work well together :-)                                                      |
c | however, if you find better choices, please let us known...                                           |
c |-------------------------------------------------------------------------------------------------------|
c | Adapt dynamically the solver after 100000 conflicts (restarts, reduction strategies...)               |
c |-------------------------------------------------------------------------------------------------------|
c |                                |                                |                                     |
c | - Restarts:                    | - Reduce Clause DB:            | - Minimize Asserting:               |
c |   * LBD Queue    :     50      |   * First     :   2000         |    * size <  30                     |
c |   * Trail  Queue :   5000      |   * Inc       :    300         |    * lbd  <   6                     |
c |   * K            :   0.80      |   * Special   :   1000         |                                     |
c |   * R            :   1.40      |   * Protected :  (lbd)< 30     |                                     |
c |                                |                                |                                     |
c ==================================[ Search Statistics (every  10000 conflicts) ]=========================
c |                                                                                                       |
c |          RESTARTS           |          ORIGINAL         |              LEARNT              | Progress |
c |       NB   Blocked  Avg Cfc |    Vars  Clauses Literals |   Red   Learnts    LBD2  Removed |          |
c =========================================================================================================
c |        2         0     5000 |     218      944     2878 |     2     6199       33     3800 |  0.000 % |
c |        5       157     4000 |     218      944     2878 |     3    11201       56     8798 |  0.000 % |
c |        6       309     5000 |     218      944     2878 |     4    13799       80    16200 |  0.000 % |
c |        6       460     6666 |     218      944     2878 |     5    13900       96    26099 |  0.000 % |
c |       11       603     4545 |     217      925     2812 |     5    16463      117    26099 |  0.047 % |
c |       11       747     5454 |     216      917     2788 |     6    10010      142    34826 |  0.093 % |
c last restart ## conflicts  :  15658 36 
c =========================================================================================================
c restarts              : 11 (5484 conflicts in avg)
c blocked restarts      : 752 (multiple: 7) 
c last block at restart : 11
c nb ReduceDB           : 6
c nb removed Clauses    : 34826
c nb learnts DL2        : 143
c nb learnts size 2     : 17
c nb learnts size 1     : 2
c conflicts             : 60326          (26229 /sec)
c decisions             : 69848          (0.00 % random) (30369 /sec)
c propagations          : 2308144        (1003541 /sec)
c nb reduced Clauses    : 0
c CPU time              : 2.3 s

s SATISFIABLE
